100
128
50
13
9
2
20
38
10
40
61
34
37
56
8
44
31
64
38
15
12
61
19
58
11
13
44
51
18
29
14
13
26
47
17
2
13
59
24
1
46
11
18
18
28
32
57
36
13
46
4
32
61
32
2
2
23
1
21
44
6
5
18
17
19
31
42
17
28
25
4
53
16
20
26
16
51
13
2
3
41
25
30
16
27
34
19
2
15
2
50
53
15
34
15
56
2
20
38
50
18
40